language ESSENCE' 1.0

letting n_variations be 7
letting n_templates be 1
letting n_slots be 9
letting demand_Function1DPartial_Flags be [true, true, true, true, true, true, true; int(1..7)]
letting demand_Function1DPartial_Values be [250, 255, 260, 500, 500, 800, 1100; int(1..7)]
letting fin1 be 7
letting fin2 be 250
letting fin3 be 1100
